(declare-const a Real)
(declare-const b Real)
(declare-const c Real)
(assert (= (+ a b c) 3))
(assert (> a 0))
(assert (> b 0))
(assert (> c 0))
(assert (not (<= (+ (pow b 3) (pow c 3) (pow (+ (/ 8 11) (* (/ 3 11) a)) 11) (* -1 (pow (+ a b c) 3)) (* 24 a b c)) 0)))
(check-sat)
(get-model)
(exit)